WARNING: for repeatability, setting FPU to use double precision
============================[ Problem Statistics ]=============================
|                                                                             |
|  Number of variables:         96177                                         |
|  Number of clauses:         1814188                                         |
|  Parse time:                   0.35 s                                       |
|                                                                             |
============================[ Search Statistics ]==============================
| Conflicts |          ORIGINAL         |          LEARNT          | Progress |
|           |    Vars  Clauses Literals |    Limit  Clauses Lit/Cl |          |
===============================================================================
|       100 |   96174  1814161  5280445 |   665192      100     16 |  0.003 % |
|       250 |   96174  1814161  5280445 |   731711      250     40 |  0.003 % |
|       475 |   96174  1814161  5280445 |   804882      475     42 |  0.003 % |
|       812 |   96174  1814161  5280445 |   885371      812     41 |  0.003 % |
|      1318 |   96174  1814161  5280445 |   973908     1318     42 |  0.003 % |
|      2077 |   96174  1814161  5280445 |  1071298     2077     39 |  0.003 % |
|      3216 |   96173  1814143  5280409 |  1178428     3215     39 |  0.004 % |
|      4924 |   96173  1814143  5280409 |  1296271     4923     40 |  0.004 % |
|      7486 |   96173  1814143  5280409 |  1425898     7485     38 |  0.004 % |
|     11330 |   96173  1814143  5280409 |  1568488    11329     42 |  0.004 % |
|     17096 |   96173  1814143  5280409 |  1725337    17095     46 |  0.004 % |
|     25745 |   96173  1814143  5280409 |  1897871    25744     48 |  0.004 % |
|     38719 |   96173  1814143  5280409 |  2087658    38718     52 |  0.004 % |
|     58180 |   96172  1814122  5280367 |  2296424    58178     60 |  0.005 % |
|     87372 |   96172  1814122  5280367 |  2526066    87370     67 |  0.005 % |
|    131161 |   96172  1814122  5280367 |  2778673   131159     70 |  0.005 % |
|    196845 |   96172  1814122  5280367 |  3056540   196843     71 |  0.005 % |
|    295371 |   96171  1814105  5280333 |  3362195   295368     69 |  0.006 % |
|    443160 |   96171  1814105  5280333 |  3698414   443157     67 |  0.006 % |
|    664843 |   96171  1814105  5280333 |  4068256   664840     63 |  0.006 % |
|    997368 |   96171  1814105  5280333 |  4475081   997365     65 |  0.006 % |
===============================================================================
restarts              : 2684
conflicts             : 1396317        (4673 /sec)
decisions             : 16101798       (0.00 % random) (53886 /sec)
propagations          : 1242177691     (4157082 /sec)
conflict literals     : 93650577       (56.97 % deleted)
Memory used           : 706.00 MB
CPU time              : 298.81 s

INDETERMINATE
